42813
1 0 1 0 0 1 1 1 1 1 1 0 1 1 0 0 0 1 1 1 1 0 0 1 1 1 0 1 1 0 
18 19 2 27 2 12 2 27 18 28 19 28 13 13 28 18 13 20 27 0 18 24 5 24 10 18 27 19 19 2 19 19 19 24 27 6 20 8 24 24 18 9 6 9 8 19 13 2 19 20 24 24 24 24 8 6 25 9 18 7 9 0 7 8 13 25 5 17 28 25 18 12 19 9 23 23 20 23 8 24 10 0 9 25 6 13 6 5 27 7 28 6 25 25 2 13 28 6 0 28 28 2 25 18 19 0 6 24 27 13 19 6 27 12 12 8 28 7 17 8 9 25 17 19 9 24 2 12 19 17 28 24 25 20 23 9 13 13 28 10 12 27 12 25 25 5 24 2 27 25 24 17 23 0 8 28 2 2 13 13 13 27 10 24 5 27 5 19 13 2 5 20 19 10 9 2 0 10 6 10 5 2 2 19 12 8 28 23 0 24 2 2 6 6 7 12 7 2 10 19 
